NAME: rand_0/map8_180
TYPE: TSP
COMMENT: autogenerated using a wonderful map creator
DIMENSION: 210
EDGE_WEIGHT_TYPE: EUC_2D
NODE_COORD_SECTION
1 3.0 7.0
2 28.0 51.0
3 67.0 53.0
4 4.0 5.0
5 69.0 46.0
6 67.0 48.0
7 68.0 59.0
8 67.0 49.0
9 74.0 52.0
10 24.0 3.0
11 75.0 61.0
12 66.0 49.0
13 25.0 52.0
14 71.0 35.0
15 21.0 4.0
16 73.0 42.0
17 9.0 3.0
18 11.0 8.0
19 72.0 55.0
20 71.0 44.0
21 7.0 2.0
22 73.0 6.0
23 75.0 5.0
24 65.0 56.0
25 24.0 55.0
26 66.0 57.0
27 71.0 8.0
28 16.0 10.0
29 21.0 8.0
30 72.0 54.0
31 2.0 5.0
32 9.0 7.0
33 18.0 4.0
34 8.0 10.0
35 75.0 7.0
36 26.0 3.0
37 14.0 12.0
38 15.0 10.0
39 75.0 54.0
40 71.0 5.0
41 5.0 5.0
42 76.0 56.0
43 16.0 13.0
44 3.0 8.0
45 30.0 52.0
46 69.0 10.0
47 75.0 42.0
48 5.0 3.0
49 17.0 4.0
50 73.0 8.0
51 75.0 49.0
52 5.0 8.0
53 14.0 8.0
54 69.0 44.0
55 74.0 42.0
56 68.0 48.0
57 14.0 5.0
58 67.0 40.0
59 73.0 53.0
60 12.0 4.0
61 52.0 40.0
62 55.0 2.0
63 73.0 17.0
64 54.0 31.0
65 22.0 26.0
66 38.0 44.0
67 56.0 37.0
68 39.0 51.0
69 51.0 16.0
70 37.0 33.0
71 33.0 27.0
72 51.0 25.0
73 6.0 57.0
74 52.0 24.0
75 58.0 40.0
76 57.0 20.0
77 61.0 27.0
78 33.0 29.0
79 12.0 61.0
80 25.0 25.0
81 73.0 19.0
82 52.0 51.0
83 13.0 44.0
84 11.0 44.0
85 44.0 56.0
86 40.0 43.0
87 63.0 45.0
88 37.0 26.0
89 3.0 24.0
90 28.0 23.0
91 6.0 50.0
92 9.0 28.0
93 40.0 61.0
94 41.0 26.0
95 42.0 25.0
96 59.0 50.0
97 73.0 21.0
98 11.0 46.0
99 31.0 24.0
100 9.0 58.0
101 39.0 37.0
102 12.0 20.0
103 3.0 26.0
104 55.0 36.0
105 27.0 29.0
106 52.0 28.0
107 44.0 24.0
108 13.0 21.0
109 53.0 57.0
110 35.0 21.0
111 54.0 10.0
112 18.0 23.0
113 8.0 61.0
114 39.0 39.0
115 6.0 54.0
116 53.0 41.0
117 27.0 22.0
118 43.0 27.0
119 8.0 27.0
120 10.0 24.0
121 26.0 20.0
122 54.0 58.0
123 61.0 51.0
124 37.0 60.0
125 56.0 18.0
126 39.0 32.0
127 38.0 34.0
128 31.0 28.0
129 12.0 24.0
130 43.0 57.0
131 48.0 53.0
132 69.0 21.0
133 38.0 52.0
134 61.0 17.0
135 38.0 61.0
136 41.0 23.0
137 58.0 39.0
138 7.0 55.0
139 8.0 20.0
140 42.0 31.0
141 10.0 26.0
142 54.0 5.0
143 68.0 22.0
144 73.0 18.0
145 37.0 53.0
146 8.0 56.0
147 54.0 23.0
148 60.0 57.0
149 51.0 54.0
150 55.0 33.0
151 75.0 18.0
152 47.0 29.0
153 41.0 25.0
154 44.0 21.0
155 65.0 19.0
156 3.0 53.0
157 5.0 50.0
158 63.0 19.0
159 56.0 13.0
160 38.0 47.0
161 3.0 25.0
162 36.0 22.0
163 58.0 34.0
164 10.0 21.0
165 9.0 23.0
166 55.0 53.0
167 45.0 52.0
168 68.0 17.0
169 9.0 50.0
170 13.0 32.0
171 11.0 47.0
172 60.0 61.0
173 13.0 41.0
174 58.0 18.0
175 59.0 17.0
176 70.0 26.0
177 59.0 44.0
178 65.0 23.0
179 68.0 19.0
180 46.0 28.0
181 58.0 57.0
182 51.0 51.0
183 13.0 34.0
184 50.0 53.0
185 67.0 23.0
186 10.0 53.0
187 69.0 20.0
188 13.0 52.0
189 54.0 32.0
190 70.0 28.0
191 37.0 25.0
192 54.0 41.0
193 30.0 19.0
194 57.0 3.0
195 65.0 16.0
196 42.0 30.0
197 12.0 44.0
198 56.0 56.0
199 54.0 4.0
200 68.0 21.0
201 43.0 31.0
202 58.0 50.0
203 37.0 61.0
204 15.0 24.0
205 41.0 52.0
206 56.0 22.0
207 61.0 18.0
208 39.0 45.0
209 54.0 43.0
210 42.0 23.0
211 19.0 21.0
212 58.0 38.0
213 75.0 29.0
214 58.0 52.0
215 35.0 29.0
216 13.0 29.0
217 15.0 26.0
218 38.0 28.0
219 55.0 7.0
220 41.0 54.0
221 64.0 19.0
222 10.0 57.0
223 22.0 22.0
224 39.0 47.0
225 14.0 27.0
226 30.0 23.0
227 12.0 57.0
228 35.0 22.0
229 72.0 16.0
230 13.0 31.0
231 21.0 23.0
232 36.0 23.0
233 70.0 25.0
234 3.0 20.0
235 45.0 35.0
236 69.0 29.0
237 14.0 38.0
238 6.0 55.0
239 40.0 57.0
240 32.0 28.0
START_DEPOT_SECTION
1
2
3
4
5
6
7
8
9
10
11
12
13
14
15
16
17
18
19
20
21
22
23
24
25
26
27
28
29
30
-1
END_DEPOT_SECTION
31
32
33
34
35
36
37
38
39
40
41
42
43
44
45
46
47
48
49
50
51
52
53
54
55
56
57
58
59
60
-1
EOF
